(set-option :produce-models true)
(set-option :produce-unsat-cores true)
(set-option :produce-interpolants true)
(set-option :interpolant-check-mode true)
(set-option :proof-transformation LU)
(set-logic ALL)
(set-info :source |SMT script generated on 2024-03-31T00:15:39+01:00 by Ultimate (https://ultimate.informatik.uni-freiburg.de/)|)
(set-info :smt-lib-version 2.5)
(set-info :category "industrial")
(set-info :ultimate-id sep20-1.i_AllErrorsAtOnce_Iteration4)
(declare-fun |c_old(#valid)| () (Array Int Int))
(declare-fun |c_old(#valid)_primed| () (Array Int Int))
(declare-fun |c_#valid| () (Array Int Int))
(declare-fun |c_#valid_primed| () (Array Int Int))
(declare-fun |c_old(#length)| () (Array Int Int))
(declare-fun |c_old(#length)_primed| () (Array Int Int))
(declare-fun |c_#length| () (Array Int Int))
(declare-fun |c_#length_primed| () (Array Int Int))
(declare-fun |c_old(#memory_int#0)| () (Array Int (Array Int Int)))
(declare-fun |c_old(#memory_int#0)_primed| () (Array Int (Array Int Int)))
(declare-fun |c_#memory_int#0| () (Array Int (Array Int Int)))
(declare-fun |c_#memory_int#0_primed| () (Array Int (Array Int Int)))
(declare-fun |c_old(#memory_int#1)| () (Array Int (Array Int Int)))
(declare-fun |c_old(#memory_int#1)_primed| () (Array Int (Array Int Int)))
(declare-fun |c_#memory_int#1| () (Array Int (Array Int Int)))
(declare-fun |c_#memory_int#1_primed| () (Array Int (Array Int Int)))
(declare-fun |c_old(#StackHeapBarrier)| () Int)
(declare-fun |c_old(#StackHeapBarrier)_primed| () Int)
(declare-fun |c_#StackHeapBarrier| () Int)
(declare-fun |c_#StackHeapBarrier_primed| () Int)
(declare-fun |c_reach_error_#t~nondet0.base| () Int)
(declare-fun |c_reach_error_#t~nondet0.base_primed| () Int)
(declare-fun |c_reach_error_#t~nondet0.offset| () Int)
(declare-fun |c_reach_error_#t~nondet0.offset_primed| () Int)
(declare-fun |c_#Ultimate.allocInit_~size| () Int)
(declare-fun |c_#Ultimate.allocInit_~size_primed| () Int)
(declare-fun |c_#Ultimate.allocInit_ptrBase| () Int)
(declare-fun |c_#Ultimate.allocInit_ptrBase_primed| () Int)
(declare-fun |c_read~int#1_#ptr.base| () Int)
(declare-fun |c_read~int#1_#ptr.base_primed| () Int)
(declare-fun |c_read~int#1_#ptr.offset| () Int)
(declare-fun |c_read~int#1_#ptr.offset_primed| () Int)
(declare-fun |c_read~int#1_#sizeOfReadType| () Int)
(declare-fun |c_read~int#1_#sizeOfReadType_primed| () Int)
(declare-fun |c_read~int#1_#value| () Int)
(declare-fun |c_read~int#1_#value_primed| () Int)
(declare-fun |c_read~int#0_#ptr.base| () Int)
(declare-fun |c_read~int#0_#ptr.base_primed| () Int)
(declare-fun |c_read~int#0_#ptr.offset| () Int)
(declare-fun |c_read~int#0_#ptr.offset_primed| () Int)
(declare-fun |c_read~int#0_#sizeOfReadType| () Int)
(declare-fun |c_read~int#0_#sizeOfReadType_primed| () Int)
(declare-fun |c_read~int#0_#value| () Int)
(declare-fun |c_read~int#0_#value_primed| () Int)
(declare-fun |c_main_#res| () Int)
(declare-fun |c_main_#res_primed| () Int)
(declare-fun |c_main_#t~nondet5| () Int)
(declare-fun |c_main_#t~nondet5_primed| () Int)
(declare-fun |c_main_#t~post6| () Int)
(declare-fun |c_main_#t~post6_primed| () Int)
(declare-fun c_main_~i~1 () Int)
(declare-fun c_main_~i~1_primed () Int)
(declare-fun |c_main_#t~ret7| () Int)
(declare-fun |c_main_#t~ret7_primed| () Int)
(declare-fun |c_main_#t~mem8| () Int)
(declare-fun |c_main_#t~mem8_primed| () Int)
(declare-fun |c_main_#t~mem9| () Int)
(declare-fun |c_main_#t~mem9_primed| () Int)
(declare-fun |c_main_#t~ret10| () Int)
(declare-fun |c_main_#t~ret10_primed| () Int)
(declare-fun |c_main_#t~mem11| () Int)
(declare-fun |c_main_#t~mem11_primed| () Int)
(declare-fun |c_main_#t~mem12| () Int)
(declare-fun |c_main_#t~mem12_primed| () Int)
(declare-fun |c_main_#t~post13| () Int)
(declare-fun |c_main_#t~post13_primed| () Int)
(declare-fun c_main_~i~2 () Int)
(declare-fun c_main_~i~2_primed () Int)
(declare-fun |c_main_#t~ret14| () Int)
(declare-fun |c_main_#t~ret14_primed| () Int)
(declare-fun |c_main_~#x~0.base| () Int)
(declare-fun |c_main_~#x~0.base_primed| () Int)
(declare-fun |c_main_~#x~0.offset| () Int)
(declare-fun |c_main_~#x~0.offset_primed| () Int)
(declare-fun c_main_~temp~0 () Int)
(declare-fun c_main_~temp~0_primed () Int)
(declare-fun c_main_~ret~1 () Int)
(declare-fun c_main_~ret~1_primed () Int)
(declare-fun c_main_~ret2~0 () Int)
(declare-fun c_main_~ret2~0_primed () Int)
(declare-fun c_main_~ret5~0 () Int)
(declare-fun c_main_~ret5~0_primed () Int)
(declare-fun |c_#Ultimate.allocOnStack_~size| () Int)
(declare-fun |c_#Ultimate.allocOnStack_~size_primed| () Int)
(declare-fun |c_#Ultimate.allocOnStack_#res.base| () Int)
(declare-fun |c_#Ultimate.allocOnStack_#res.base_primed| () Int)
(declare-fun |c_#Ultimate.allocOnStack_#res.offset| () Int)
(declare-fun |c_#Ultimate.allocOnStack_#res.offset_primed| () Int)
(declare-fun |c_write~int#0_#value| () Int)
(declare-fun |c_write~int#0_#value_primed| () Int)
(declare-fun |c_write~int#0_#ptr.base| () Int)
(declare-fun |c_write~int#0_#ptr.base_primed| () Int)
(declare-fun |c_write~int#0_#ptr.offset| () Int)
(declare-fun |c_write~int#0_#ptr.offset_primed| () Int)
(declare-fun |c_write~int#0_#sizeOfWrittenType| () Int)
(declare-fun |c_write~int#0_#sizeOfWrittenType_primed| () Int)
(declare-fun |c_write~int#1_#value| () Int)
(declare-fun |c_write~int#1_#value_primed| () Int)
(declare-fun |c_write~int#1_#ptr.base| () Int)
(declare-fun |c_write~int#1_#ptr.base_primed| () Int)
(declare-fun |c_write~int#1_#ptr.offset| () Int)
(declare-fun |c_write~int#1_#ptr.offset_primed| () Int)
(declare-fun |c_write~int#1_#sizeOfWrittenType| () Int)
(declare-fun |c_write~int#1_#sizeOfWrittenType_primed| () Int)
(declare-fun |c___assert_#in~__assertion.base| () Int)
(declare-fun |c___assert_#in~__assertion.base_primed| () Int)
(declare-fun |c___assert_#in~__assertion.offset| () Int)
(declare-fun |c___assert_#in~__assertion.offset_primed| () Int)
(declare-fun |c___assert_#in~__file.base| () Int)
(declare-fun |c___assert_#in~__file.base_primed| () Int)
(declare-fun |c___assert_#in~__file.offset| () Int)
(declare-fun |c___assert_#in~__file.offset_primed| () Int)
(declare-fun |c___assert_#in~__line| () Int)
(declare-fun |c___assert_#in~__line_primed| () Int)
(declare-fun |c___VERIFIER_nondet_int_#res| () Int)
(declare-fun |c___VERIFIER_nondet_int_#res_primed| () Int)
(declare-fun |c_ULTIMATE.start_#t~ret15| () Int)
(declare-fun |c_ULTIMATE.start_#t~ret15_primed| () Int)
(declare-fun |c_write~init~int#1_#value| () Int)
(declare-fun |c_write~init~int#1_#value_primed| () Int)
(declare-fun |c_write~init~int#1_#ptr.base| () Int)
(declare-fun |c_write~init~int#1_#ptr.base_primed| () Int)
(declare-fun |c_write~init~int#1_#ptr.offset| () Int)
(declare-fun |c_write~init~int#1_#ptr.offset_primed| () Int)
(declare-fun |c_write~init~int#1_#sizeOfWrittenType| () Int)
(declare-fun |c_write~init~int#1_#sizeOfWrittenType_primed| () Int)
(declare-fun |c___assert_fail_#in~__assertion.base| () Int)
(declare-fun |c___assert_fail_#in~__assertion.base_primed| () Int)
(declare-fun |c___assert_fail_#in~__assertion.offset| () Int)
(declare-fun |c___assert_fail_#in~__assertion.offset_primed| () Int)
(declare-fun |c___assert_fail_#in~__file.base| () Int)
(declare-fun |c___assert_fail_#in~__file.base_primed| () Int)
(declare-fun |c___assert_fail_#in~__file.offset| () Int)
(declare-fun |c___assert_fail_#in~__file.offset_primed| () Int)
(declare-fun |c___assert_fail_#in~__line| () Int)
(declare-fun |c___assert_fail_#in~__line_primed| () Int)
(declare-fun |c___assert_fail_#in~__function.base| () Int)
(declare-fun |c___assert_fail_#in~__function.base_primed| () Int)
(declare-fun |c___assert_fail_#in~__function.offset| () Int)
(declare-fun |c___assert_fail_#in~__function.offset_primed| () Int)
(declare-fun |c___assert_perror_fail_#in~__errnum| () Int)
(declare-fun |c___assert_perror_fail_#in~__errnum_primed| () Int)
(declare-fun |c___assert_perror_fail_#in~__file.base| () Int)
(declare-fun |c___assert_perror_fail_#in~__file.base_primed| () Int)
(declare-fun |c___assert_perror_fail_#in~__file.offset| () Int)
(declare-fun |c___assert_perror_fail_#in~__file.offset_primed| () Int)
(declare-fun |c___assert_perror_fail_#in~__line| () Int)
(declare-fun |c___assert_perror_fail_#in~__line_primed| () Int)
(declare-fun |c___assert_perror_fail_#in~__function.base| () Int)
(declare-fun |c___assert_perror_fail_#in~__function.base_primed| () Int)
(declare-fun |c___assert_perror_fail_#in~__function.offset| () Int)
(declare-fun |c___assert_perror_fail_#in~__function.offset_primed| () Int)
(declare-fun |c_write~init~int#0_#value| () Int)
(declare-fun |c_write~init~int#0_#value_primed| () Int)
(declare-fun |c_write~init~int#0_#ptr.base| () Int)
(declare-fun |c_write~init~int#0_#ptr.base_primed| () Int)
(declare-fun |c_write~init~int#0_#ptr.offset| () Int)
(declare-fun |c_write~init~int#0_#ptr.offset_primed| () Int)
(declare-fun |c_write~init~int#0_#sizeOfWrittenType| () Int)
(declare-fun |c_write~init~int#0_#sizeOfWrittenType_primed| () Int)
(declare-fun |c_sep_#in~x.base| () Int)
(declare-fun |c_sep_#in~x.base_primed| () Int)
(declare-fun |c_sep_#in~x.offset| () Int)
(declare-fun |c_sep_#in~x.offset_primed| () Int)
(declare-fun |c_sep_#res| () Int)
(declare-fun |c_sep_#res_primed| () Int)
(declare-fun |c_sep_#t~mem1| () Int)
(declare-fun |c_sep_#t~mem1_primed| () Int)
(declare-fun |c_sep_#t~post2| () Int)
(declare-fun |c_sep_#t~post2_primed| () Int)
(declare-fun |c_sep_#t~post3| () Int)
(declare-fun |c_sep_#t~post3_primed| () Int)
(declare-fun |c_sep_#t~post4| () Int)
(declare-fun |c_sep_#t~post4_primed| () Int)
(declare-fun c_sep_~i~0 () Int)
(declare-fun c_sep_~i~0_primed () Int)
(declare-fun c_sep_~x.base () Int)
(declare-fun c_sep_~x.base_primed () Int)
(declare-fun c_sep_~x.offset () Int)
(declare-fun c_sep_~x.offset_primed () Int)
(declare-fun c_sep_~ret~0 () Int)
(declare-fun c_sep_~ret~0_primed () Int)
(declare-fun c_ULTIMATE.dealloc_~addr.base () Int)
(declare-fun c_ULTIMATE.dealloc_~addr.base_primed () Int)
(declare-fun c_ULTIMATE.dealloc_~addr.offset () Int)
(declare-fun c_ULTIMATE.dealloc_~addr.offset_primed () Int)
(declare-fun |c_aux_v_main_#t~nondet5_3| () Int)
(declare-fun c_aux_v_main_~temp~0_5 () Int)
(declare-fun |c_aux_v_ULTIMATE.start_#t~ret15_3| () Int)
(declare-fun |c_aux_v_sep_#t~post2_2| () Int)
(declare-fun |c_aux_v_sep_#t~post3_2| () Int)
(declare-fun |c_aux_v_main_#t~nondet5_5| () Int)
(declare-fun |c_aux_v_main_#t~nondet5_7| () Int)
(declare-fun c_aux_v_ArrVal_1 () Int)
(declare-fun c_aux_v_ArrVal_2 () Int)
(declare-fun c_aux_v_main_~temp~0_6 () Int)
(declare-fun c_aux_v_ArrVal_4 () Int)
(declare-fun c_aux_v_ArrVal_3 () Int)
(declare-fun c_aux_v_ArrVal_5 () (Array Int Int))
(declare-fun c_aux_v_ArrVal_6 () (Array Int Int))
(declare-fun c_aux_v_ArrVal_7 () Int)
(declare-fun c_aux_v_ArrVal_8 () Int)
(declare-fun c_aux_v_ArrVal_9 () Int)
(declare-fun c_aux_v_main_~temp~0_7 () Int)
(declare-fun c_aux_v_ArrVal_11 () (Array Int Int))
(declare-fun c_aux_v_ArrVal_10 () Int)
(declare-fun c_aux_v_ArrVal_12 () Int)
(declare-fun c_aux_v_ArrVal_14 () Int)
(declare-fun c_aux_v_ArrVal_13 () (Array Int Int))
(declare-fun c_aux_v_ArrVal_15 () Int)
(declare-fun c_aux_v_ArrVal_16 () Int)
(declare-fun c_aux_v_ArrVal_17 () Int)
(declare-fun |c_aux_v_main_#t~nondet5_8| () Int)
(declare-fun c_aux_v_ArrVal_18 () (Array Int Int))
(declare-fun c_aux_v_ArrVal_19 () Int)
(declare-fun c_aux_v_ArrVal_20 () (Array Int Int))
(declare-fun c_aux_v_ArrVal_21 () Int)
(declare-fun c_aux_v_main_~temp~0_8 () Int)
(declare-fun c_aux_v_ArrVal_22 () (Array Int Int))
(declare-fun c_aux_v_ArrVal_23 () Int)
(echo "starting trace check")
(push 1)
(declare-fun |#memory_int#0_-1| () (Array Int (Array Int Int)))
(declare-fun |#valid_-1| () (Array Int Int))
(declare-fun |#length_-1| () (Array Int Int))
(declare-fun |#memory_int#1_-1| () (Array Int (Array Int Int)))
(declare-fun |old(#memory_int#0)_-1| () (Array Int (Array Int Int)))
(declare-fun |old(#valid)_-1| () (Array Int Int))
(declare-fun |old(#length)_-1| () (Array Int Int))
(declare-fun |old(#memory_int#1)_-1| () (Array Int (Array Int Int)))
(declare-fun |#StackHeapBarrier_-1| () Int)
(declare-fun |old(#valid)_3| () (Array Int Int))
(declare-fun |old(#length)_3| () (Array Int Int))
(declare-fun |old(#memory_int#1)_3| () (Array Int (Array Int Int)))
(declare-fun |#valid_3| () (Array Int Int))
(declare-fun |#length_3| () (Array Int Int))
(declare-fun |#memory_int#1_3| () (Array Int (Array Int Int)))
(declare-fun |main_~#x~0.offset_4| () Int)
(declare-fun main_~ret5~0_4 () Int)
(declare-fun main_~temp~0_4 () Int)
(declare-fun |#valid_4| () (Array Int Int))
(declare-fun main_~i~1_4 () Int)
(declare-fun |#length_4| () (Array Int Int))
(declare-fun main_~ret~1_4 () Int)
(declare-fun main_~ret2~0_4 () Int)
(declare-fun |main_~#x~0.base_4| () Int)
(declare-fun v_ArrVal_24_fresh_1 () Int)
(declare-fun v_ArrVal_25_fresh_1 () Int)
(declare-fun |main_#t~nondet5_5| () Int)
(declare-fun main_~i~1_5 () Int)
(declare-fun |#memory_int#1_5| () (Array Int (Array Int Int)))
(declare-fun |main_#t~post6_5| () Int)
(declare-fun |v_main_#t~nondet5_9_fresh_1| () Int)
(declare-fun v_ArrVal_27_fresh_1 () Int)
(declare-fun v_ArrVal_26_fresh_1 () (Array Int Int))
(declare-fun |main_#t~nondet5_6| () Int)
(declare-fun main_~i~1_6 () Int)
(declare-fun |#memory_int#1_6| () (Array Int (Array Int Int)))
(declare-fun |main_#t~post6_6| () Int)
(declare-fun |v_main_#t~nondet5_10_fresh_1| () Int)
(declare-fun v_ArrVal_29_fresh_1 () Int)
(declare-fun v_ArrVal_28_fresh_1 () (Array Int Int))
(declare-fun main_~i~1_7 () Int)
(declare-fun main_~i~1_8 () Int)
(declare-fun |main_~#x~0.offset_9| () Int)
(declare-fun |sep_#in~x.offset_9| () Int)
(declare-fun |sep_#in~x.base_9| () Int)
(declare-fun |main_~#x~0.base_9| () Int)
(declare-fun sep_~i~0_10 () Int)
(declare-fun sep_~x.offset_10 () Int)
(declare-fun sep_~x.base_10 () Int)
(declare-fun sep_~ret~0_10 () Int)
(declare-fun sep_~i~0_11 () Int)
(declare-fun sep_~i~0_12 () Int)
(declare-fun |sep_#res_12| () Int)
(declare-fun sep_~ret~0_12 () Int)
(declare-fun |main_#t~ret7_13| () Int)
(declare-fun |sep_#res_13| () Int)
(declare-fun |main_#t~ret7_14| () Int)
(declare-fun |main_#t~mem8_14| () Int)
(declare-fun |#memory_int#1_14| () (Array Int (Array Int Int)))
(declare-fun main_~ret~1_14 () Int)
(declare-fun |main_#t~mem9_14| () Int)
(declare-fun v_ArrVal_31_fresh_1 () (Array Int Int))
(declare-fun v_ArrVal_32_fresh_1 () Int)
(declare-fun v_main_~temp~0_9_fresh_1 () Int)
(declare-fun v_ArrVal_30_fresh_1 () Int)
(declare-fun |main_~#x~0.offset_15| () Int)
(declare-fun |sep_#in~x.offset_15| () Int)
(declare-fun |sep_#in~x.base_15| () Int)
(declare-fun |main_~#x~0.base_15| () Int)
(declare-fun sep_~i~0_16 () Int)
(declare-fun sep_~x.offset_16 () Int)
(declare-fun sep_~x.base_16 () Int)
(declare-fun sep_~ret~0_16 () Int)
(declare-fun sep_~i~0_17 () Int)
(declare-fun sep_~i~0_18 () Int)
(declare-fun |sep_#res_18| () Int)
(declare-fun sep_~ret~0_18 () Int)
(declare-fun |sep_#res_19| () Int)
(declare-fun |main_#t~ret10_19| () Int)
(declare-fun main_~temp~0_20 () Int)
(declare-fun |main_#t~mem11_20| () Int)
(declare-fun |main_#t~ret10_20| () Int)
(declare-fun main_~i~2_20 () Int)
(declare-fun main_~ret2~0_20 () Int)
(declare-fun main_~i~2_21 () Int)
(declare-fun main_~temp~0_22 () Int)
(declare-fun main_~i~2_22 () Int)
(declare-fun |#memory_int#1_22| () (Array Int (Array Int Int)))
(declare-fun v_ArrVal_33_fresh_1 () (Array Int Int))
(declare-fun v_ArrVal_34_fresh_1 () Int)
(declare-fun |main_~#x~0.offset_23| () Int)
(declare-fun |sep_#in~x.offset_23| () Int)
(declare-fun |sep_#in~x.base_23| () Int)
(declare-fun |main_~#x~0.base_23| () Int)
(declare-fun sep_~i~0_24 () Int)
(declare-fun sep_~x.offset_24 () Int)
(declare-fun sep_~x.base_24 () Int)
(declare-fun sep_~ret~0_24 () Int)
(declare-fun sep_~i~0_25 () Int)
(declare-fun sep_~i~0_26 () Int)
(declare-fun |sep_#res_26| () Int)
(declare-fun sep_~ret~0_26 () Int)
(declare-fun |main_#t~ret14_27| () Int)
(declare-fun |sep_#res_27| () Int)
(declare-fun main_~ret5~0_28 () Int)
(declare-fun |main_#t~ret14_28| () Int)
(declare-fun main_~ret5~0_29 () Int)
(declare-fun main_~ret~1_29 () Int)
(declare-fun main_~ret2~0_29 () Int)
(assert (! true :named ssa_precond))
(assert (! (not false) :named ssa_postcond))
(assert (! true :named ssa_0_GlobVarAssigCall))
(assert (! true :named ssa_0_LocVarAssigCall))
(assert (! true :named ssa_0_OldVarAssigCall))
(assert (! (and (= (select |#valid_-1| 1) 1) (= (select |#valid_-1| 2) 1) (< 0 |#StackHeapBarrier_-1|) (= (select |#valid_-1| 0) 0) (= (select |#length_-1| 1) 2) (= (select (select |#memory_int#0_-1| 1) 1) 0) (= (select |#length_-1| 2) 10) (= (select (select |#memory_int#0_-1| 1) 0) 48)) :named ssa_1))
(assert (! true :named ssa_2_return))
(assert (! (and (= |old(#valid)_3| |#valid_3|) (= |#length_3| |old(#length)_3|) (= |old(#memory_int#1)_3| |#memory_int#1_3|)) :named ssa_3_GlobVarAssigCall))
(assert (! true :named ssa_3_LocVarAssigCall))
(assert (! (and (= |old(#length)_3| |#length_-1|) (= |#valid_-1| |old(#valid)_3|) (= |old(#memory_int#1)_3| |#memory_int#1_-1|)) :named ssa_3_OldVarAssigCall))
(assert (! (and (= main_~i~1_4 0) (= |main_~#x~0.offset_4| 0) (= (select |#valid_3| |main_~#x~0.base_4|) 0) (< |#StackHeapBarrier_-1| |main_~#x~0.base_4|) (= (store |#length_3| |main_~#x~0.base_4| v_ArrVal_24_fresh_1) |#length_4|) (not (= |main_~#x~0.base_4| 0)) (= v_ArrVal_24_fresh_1 80) (= v_ArrVal_25_fresh_1 1) (= (store |#valid_3| |main_~#x~0.base_4| v_ArrVal_25_fresh_1) |#valid_4|)) :named ssa_4))
(assert (! (and (= |#memory_int#1_5| (store |#memory_int#1_3| |main_~#x~0.base_4| v_ArrVal_26_fresh_1)) (= (store (select |#memory_int#1_3| |main_~#x~0.base_4|) (+ (* main_~i~1_4 4) |main_~#x~0.offset_4|) |v_main_#t~nondet5_9_fresh_1|) v_ArrVal_26_fresh_1) (<= |v_main_#t~nondet5_9_fresh_1| 2147483647) (= |v_main_#t~nondet5_9_fresh_1| v_ArrVal_27_fresh_1) (< main_~i~1_4 20) (<= 0 (+ |v_main_#t~nondet5_9_fresh_1| 2147483648)) (= main_~i~1_5 (+ main_~i~1_4 1))) :named ssa_5))
(assert (! (and (= (store (select |#memory_int#1_5| |main_~#x~0.base_4|) (+ (* main_~i~1_5 4) |main_~#x~0.offset_4|) |v_main_#t~nondet5_10_fresh_1|) v_ArrVal_28_fresh_1) (<= 0 (+ |v_main_#t~nondet5_10_fresh_1| 2147483648)) (< main_~i~1_5 20) (<= |v_main_#t~nondet5_10_fresh_1| 2147483647) (= |v_main_#t~nondet5_10_fresh_1| v_ArrVal_29_fresh_1) (= |#memory_int#1_6| (store |#memory_int#1_5| |main_~#x~0.base_4| v_ArrVal_28_fresh_1)) (= main_~i~1_6 (+ main_~i~1_5 1))) :named ssa_6))
(assert (! (<= 20 main_~i~1_6) :named ssa_7))
(assert (! true :named ssa_8))
(assert (! true :named ssa_9_GlobVarAssigCall))
(assert (! (and (= |main_~#x~0.offset_4| |sep_#in~x.offset_9|) (= |sep_#in~x.base_9| |main_~#x~0.base_4|)) :named ssa_9_LocVarAssigCall))
(assert (! true :named ssa_9_OldVarAssigCall))
(assert (! (and (= sep_~ret~0_10 0) (= sep_~i~0_10 0) (= |sep_#in~x.base_9| sep_~x.base_10) (= |sep_#in~x.offset_9| sep_~x.offset_10)) :named ssa_10))
(assert (! (<= 20 sep_~i~0_10) :named ssa_11))
(assert (! (= (ite (<= (mod sep_~ret~0_10 4294967296) 2147483647) (mod sep_~ret~0_10 4294967296) (+ (- 4294967296) (mod sep_~ret~0_10 4294967296))) |sep_#res_12|) :named ssa_12))
(assert (! (= |sep_#res_12| |main_#t~ret7_13|) :named ssa_13_return))
(assert (! (and (= v_ArrVal_31_fresh_1 (store (store (select |#memory_int#1_6| |main_~#x~0.base_4|) |main_~#x~0.offset_4| v_ArrVal_30_fresh_1) (+ |main_~#x~0.offset_4| 4) v_main_~temp~0_9_fresh_1)) (<= |main_#t~ret7_13| 2147483647) (= (select (select |#memory_int#1_6| |main_~#x~0.base_4|) |main_~#x~0.offset_4|) v_main_~temp~0_9_fresh_1) (= (select (select |#memory_int#1_6| |main_~#x~0.base_4|) (+ |main_~#x~0.offset_4| 4)) v_ArrVal_30_fresh_1) (= |main_#t~ret7_13| main_~ret~1_14) (<= 0 (+ |main_#t~ret7_13| 2147483648)) (= v_main_~temp~0_9_fresh_1 v_ArrVal_32_fresh_1) (= (store |#memory_int#1_6| |main_~#x~0.base_4| v_ArrVal_31_fresh_1) |#memory_int#1_14|)) :named ssa_14))
(assert (! true :named ssa_15_GlobVarAssigCall))
(assert (! (and (= |sep_#in~x.base_15| |main_~#x~0.base_4|) (= |main_~#x~0.offset_4| |sep_#in~x.offset_15|)) :named ssa_15_LocVarAssigCall))
(assert (! true :named ssa_15_OldVarAssigCall))
(assert (! (and (= sep_~ret~0_16 0) (= sep_~i~0_16 0) (= |sep_#in~x.base_15| sep_~x.base_16) (= |sep_#in~x.offset_15| sep_~x.offset_16)) :named ssa_16))
(assert (! (<= 20 sep_~i~0_16) :named ssa_17))
(assert (! (= (ite (<= (mod sep_~ret~0_16 4294967296) 2147483647) (mod sep_~ret~0_16 4294967296) (+ (- 4294967296) (mod sep_~ret~0_16 4294967296))) |sep_#res_18|) :named ssa_18))
(assert (! (= |sep_#res_18| |main_#t~ret10_19|) :named ssa_19_return))
(assert (! (and (<= |main_#t~ret10_19| 2147483647) (= main_~ret2~0_20 |main_#t~ret10_19|) (= main_~i~2_20 0) (<= 0 (+ |main_#t~ret10_19| 2147483648)) (= main_~temp~0_20 (select (select |#memory_int#1_14| |main_~#x~0.base_4|) |main_~#x~0.offset_4|))) :named ssa_20))
(assert (! (<= 19 main_~i~2_20) :named ssa_21))
(assert (! (and (= (store |#memory_int#1_14| |main_~#x~0.base_4| v_ArrVal_33_fresh_1) |#memory_int#1_22|) (= (store (select |#memory_int#1_14| |main_~#x~0.base_4|) (+ 76 |main_~#x~0.offset_4|) main_~temp~0_20) v_ArrVal_33_fresh_1) (= main_~temp~0_20 v_ArrVal_34_fresh_1)) :named ssa_22))
(assert (! true :named ssa_23_GlobVarAssigCall))
(assert (! (and (= |main_~#x~0.offset_4| |sep_#in~x.offset_23|) (= |sep_#in~x.base_23| |main_~#x~0.base_4|)) :named ssa_23_LocVarAssigCall))
(assert (! true :named ssa_23_OldVarAssigCall))
(assert (! (and (= sep_~ret~0_24 0) (= sep_~i~0_24 0) (= |sep_#in~x.base_23| sep_~x.base_24) (= |sep_#in~x.offset_23| sep_~x.offset_24)) :named ssa_24))
(assert (! (<= 20 sep_~i~0_24) :named ssa_25))
(assert (! (= (ite (<= (mod sep_~ret~0_24 4294967296) 2147483647) (mod sep_~ret~0_24 4294967296) (+ (- 4294967296) (mod sep_~ret~0_24 4294967296))) |sep_#res_26|) :named ssa_26))
(assert (! (= |sep_#res_26| |main_#t~ret14_27|) :named ssa_27_return))
(assert (! (and (= main_~ret5~0_28 |main_#t~ret14_27|) (<= |main_#t~ret14_27| 2147483647) (<= 0 (+ |main_#t~ret14_27| 2147483648))) :named ssa_28))
(assert (! (or (not (= main_~ret5~0_28 main_~ret~1_14)) (not (= main_~ret2~0_20 main_~ret~1_14))) :named ssa_29))
(assert (! true :named ssa_30))
(check-sat)
(get-interpolants (and ssa_0_LocVarAssigCall ssa_precond ssa_0_GlobVarAssigCall ssa_0_OldVarAssigCall ssa_2_return ssa_1) (and ssa_3_OldVarAssigCall ssa_3_LocVarAssigCall ssa_3_GlobVarAssigCall) ssa_4 ssa_5 ssa_6 ssa_7 ssa_8 (and ssa_10 ssa_13_return ssa_12 ssa_11 ssa_9_LocVarAssigCall ssa_9_OldVarAssigCall ssa_9_GlobVarAssigCall) ssa_14 (and ssa_16 ssa_15_LocVarAssigCall ssa_15_GlobVarAssigCall ssa_19_return ssa_18 ssa_17 ssa_15_OldVarAssigCall) ssa_20 ssa_21 ssa_22 (and ssa_26 ssa_27_return ssa_25 ssa_23_OldVarAssigCall ssa_23_LocVarAssigCall ssa_23_GlobVarAssigCall ssa_24) ssa_28 ssa_29 (and ssa_postcond ssa_30))
(echo "finished trace check")
(pop 1)
(echo "starting trace check")
(push 1)
(declare-fun |#memory_int#0_-2| () (Array Int (Array Int Int)))
(declare-fun |#valid_-2| () (Array Int Int))
(declare-fun |#length_-2| () (Array Int Int))
(declare-fun |#memory_int#1_-2| () (Array Int (Array Int Int)))
(declare-fun |old(#memory_int#0)_-2| () (Array Int (Array Int Int)))
(declare-fun |old(#valid)_-2| () (Array Int Int))
(declare-fun |old(#length)_-2| () (Array Int Int))
(declare-fun |old(#memory_int#1)_-2| () (Array Int (Array Int Int)))
(declare-fun |#StackHeapBarrier_-1| () Int)
(assert (! true :named ssa_precond))
(assert (! (not true) :named ssa_postcond))
(assert (! (and (= (select |#valid_-2| 1) 1) (= (select |#valid_-2| 2) 1) (< 0 |#StackHeapBarrier_-1|) (= (select |#valid_-2| 0) 0) (= (select |#length_-2| 1) 2) (= (select (select |#memory_int#0_-2| 1) 1) 0) (= (select |#length_-2| 2) 10) (= (select (select |#memory_int#0_-2| 1) 0) 48)) :named ssa_0))
(assert (! true :named ssa_1_return))
(assert (! true :named ssa_-2_PendingContext))
(assert (! true :named ssa_-2_LocVarAssignPendingContext))
(assert (! true :named ssa_-2_OldVarAssignPendingContext))
(check-sat)
(get-interpolants (and ssa_0 ssa_precond) (and ssa_-2_PendingContext ssa_-2_LocVarAssignPendingContext ssa_-2_OldVarAssignPendingContext ssa_1_return ssa_postcond))
(echo "finished trace check")
(pop 1)
(echo "starting trace check")
(push 1)
(declare-fun |#valid_-2| () (Array Int Int))
(declare-fun |#length_-2| () (Array Int Int))
(declare-fun |#memory_int#1_-2| () (Array Int (Array Int Int)))
(declare-fun |old(#valid)_-2| () (Array Int Int))
(declare-fun |old(#length)_-2| () (Array Int Int))
(declare-fun |old(#memory_int#1)_-2| () (Array Int (Array Int Int)))
(declare-fun |main_~#x~0.offset_-2| () Int)
(declare-fun |main_~#x~0.base_-2| () Int)
(declare-fun |main_~#x~0.offset_-1| () Int)
(declare-fun |sep_#in~x.offset_-1| () Int)
(declare-fun |sep_#in~x.base_-1| () Int)
(declare-fun |main_~#x~0.base_-1| () Int)
(declare-fun sep_~i~0_0 () Int)
(declare-fun sep_~x.offset_0 () Int)
(declare-fun sep_~x.base_0 () Int)
(declare-fun sep_~ret~0_0 () Int)
(declare-fun sep_~i~0_1 () Int)
(declare-fun sep_~i~0_2 () Int)
(declare-fun |sep_#res_2| () Int)
(declare-fun sep_~ret~0_2 () Int)
(declare-fun |main_#t~ret7_3| () Int)
(declare-fun |sep_#res_3| () Int)
(assert (! true :named ssa_precond))
(assert (! (not false) :named ssa_postcond))
(assert (! (and (= sep_~ret~0_0 0) (= sep_~i~0_0 0) (= |sep_#in~x.base_-1| sep_~x.base_0) (= |sep_#in~x.offset_-1| sep_~x.offset_0)) :named ssa_0))
(assert (! (<= 20 sep_~i~0_0) :named ssa_1))
(assert (! (= (ite (<= (mod sep_~ret~0_0 4294967296) 2147483647) (mod sep_~ret~0_0 4294967296) (+ (- 4294967296) (mod sep_~ret~0_0 4294967296))) |sep_#res_2|) :named ssa_2))
(assert (! (= |sep_#res_2| |main_#t~ret7_3|) :named ssa_3_return))
(assert (! true :named ssa_-2_PendingContext))
(assert (! (and (= |main_~#x~0.offset_-2| |sep_#in~x.offset_-1|) (= |sep_#in~x.base_-1| |main_~#x~0.base_-2|)) :named ssa_-2_LocVarAssignPendingContext))
(assert (! true :named ssa_-2_OldVarAssignPendingContext))
(check-sat)
(get-interpolants (and ssa_0 ssa_precond) ssa_1 ssa_2 (and ssa_-2_PendingContext ssa_3_return ssa_-2_LocVarAssignPendingContext ssa_-2_OldVarAssignPendingContext ssa_postcond))
(echo "finished trace check")
(pop 1)
(echo "starting trace check")
(push 1)
(declare-fun |#valid_-2| () (Array Int Int))
(declare-fun |#length_-2| () (Array Int Int))
(declare-fun |#memory_int#1_-2| () (Array Int (Array Int Int)))
(declare-fun |old(#valid)_-2| () (Array Int Int))
(declare-fun |old(#length)_-2| () (Array Int Int))
(declare-fun |old(#memory_int#1)_-2| () (Array Int (Array Int Int)))
(declare-fun |main_~#x~0.offset_-2| () Int)
(declare-fun |main_~#x~0.base_-2| () Int)
(declare-fun |main_~#x~0.offset_-1| () Int)
(declare-fun |sep_#in~x.offset_-1| () Int)
(declare-fun |sep_#in~x.base_-1| () Int)
(declare-fun |main_~#x~0.base_-1| () Int)
(declare-fun sep_~i~0_0 () Int)
(declare-fun sep_~x.offset_0 () Int)
(declare-fun sep_~x.base_0 () Int)
(declare-fun sep_~ret~0_0 () Int)
(declare-fun sep_~i~0_1 () Int)
(declare-fun sep_~i~0_2 () Int)
(declare-fun |sep_#res_2| () Int)
(declare-fun sep_~ret~0_2 () Int)
(declare-fun |sep_#res_3| () Int)
(declare-fun |main_#t~ret10_3| () Int)
(assert (! true :named ssa_precond))
(assert (! (not false) :named ssa_postcond))
(assert (! (and (= sep_~ret~0_0 0) (= sep_~i~0_0 0) (= |sep_#in~x.base_-1| sep_~x.base_0) (= |sep_#in~x.offset_-1| sep_~x.offset_0)) :named ssa_0))
(assert (! (<= 20 sep_~i~0_0) :named ssa_1))
(assert (! (= (ite (<= (mod sep_~ret~0_0 4294967296) 2147483647) (mod sep_~ret~0_0 4294967296) (+ (- 4294967296) (mod sep_~ret~0_0 4294967296))) |sep_#res_2|) :named ssa_2))
(assert (! (= |sep_#res_2| |main_#t~ret10_3|) :named ssa_3_return))
(assert (! false :named ssa_-2_PendingContext))
(assert (! (and (= |sep_#in~x.base_-1| |main_~#x~0.base_-2|) (= |main_~#x~0.offset_-2| |sep_#in~x.offset_-1|)) :named ssa_-2_LocVarAssignPendingContext))
(assert (! true :named ssa_-2_OldVarAssignPendingContext))
(check-sat)
(get-interpolants (and ssa_0 ssa_precond) ssa_1 ssa_2 (and ssa_-2_PendingContext ssa_3_return ssa_-2_LocVarAssignPendingContext ssa_-2_OldVarAssignPendingContext ssa_postcond))
(echo "finished trace check")
(pop 1)
(echo "starting trace check")
(push 1)
(declare-fun |#valid_-2| () (Array Int Int))
(declare-fun |#length_-2| () (Array Int Int))
(declare-fun |#memory_int#1_-2| () (Array Int (Array Int Int)))
(declare-fun |old(#valid)_-2| () (Array Int Int))
(declare-fun |old(#length)_-2| () (Array Int Int))
(declare-fun |old(#memory_int#1)_-2| () (Array Int (Array Int Int)))
(declare-fun |main_~#x~0.offset_-2| () Int)
(declare-fun |main_~#x~0.base_-2| () Int)
(declare-fun |main_~#x~0.offset_-1| () Int)
(declare-fun |sep_#in~x.offset_-1| () Int)
(declare-fun |sep_#in~x.base_-1| () Int)
(declare-fun |main_~#x~0.base_-1| () Int)
(declare-fun sep_~i~0_0 () Int)
(declare-fun sep_~x.offset_0 () Int)
(declare-fun sep_~x.base_0 () Int)
(declare-fun sep_~ret~0_0 () Int)
(declare-fun sep_~i~0_1 () Int)
(declare-fun sep_~i~0_2 () Int)
(declare-fun |sep_#res_2| () Int)
(declare-fun sep_~ret~0_2 () Int)
(declare-fun |main_#t~ret14_3| () Int)
(declare-fun |sep_#res_3| () Int)
(assert (! true :named ssa_precond))
(assert (! (not false) :named ssa_postcond))
(assert (! (and (= sep_~ret~0_0 0) (= sep_~i~0_0 0) (= |sep_#in~x.base_-1| sep_~x.base_0) (= |sep_#in~x.offset_-1| sep_~x.offset_0)) :named ssa_0))
(assert (! (<= 20 sep_~i~0_0) :named ssa_1))
(assert (! (= (ite (<= (mod sep_~ret~0_0 4294967296) 2147483647) (mod sep_~ret~0_0 4294967296) (+ (- 4294967296) (mod sep_~ret~0_0 4294967296))) |sep_#res_2|) :named ssa_2))
(assert (! (= |sep_#res_2| |main_#t~ret14_3|) :named ssa_3_return))
(assert (! false :named ssa_-2_PendingContext))
(assert (! (and (= |main_~#x~0.offset_-2| |sep_#in~x.offset_-1|) (= |sep_#in~x.base_-1| |main_~#x~0.base_-2|)) :named ssa_-2_LocVarAssignPendingContext))
(assert (! true :named ssa_-2_OldVarAssignPendingContext))
(check-sat)
(get-interpolants (and ssa_0 ssa_precond) ssa_1 ssa_2 (and ssa_-2_PendingContext ssa_3_return ssa_-2_LocVarAssignPendingContext ssa_-2_OldVarAssignPendingContext ssa_postcond))
(echo "finished trace check")
(pop 1)
(exit)
